c nIsolatedPIs 0
c maxPI 32
p cnf 170 415
c gate 33 16 -32 0
16 -33 0
-32 -33 0
-16 32 33 0
c gate 34 -16 32 0
-16 -34 0
32 -34 0
16 -32 34 0
c gate 35 -33 -34 0
-33 -35 0
-34 -35 0
33 34 35 0
c gate 36 13 -29 0
13 -36 0
-29 -36 0
-13 29 36 0
c gate 37 -12 28 0
-12 -37 0
28 -37 0
12 -28 37 0
c gate 38 10 -26 0
10 -38 0
-26 -38 0
-10 26 38 0
c gate 39 -9 25 0
-9 -39 0
25 -39 0
9 -25 39 0
c gate 40 -8 24 0
-8 -40 0
24 -40 0
8 -24 40 0
c gate 41 7 -23 0
7 -41 0
-23 -41 0
-7 23 41 0
c gate 42 -7 23 0
-7 -42 0
23 -42 0
7 -23 42 0
c gate 43 6 -22 0
6 -43 0
-22 -43 0
-6 22 43 0
c gate 44 -2 18 0
-2 -44 0
18 -44 0
2 -18 44 0
c gate 45 -1 17 0
-1 -45 0
17 -45 0
1 -17 45 0
c gate 46 -44 -45 0
-44 -46 0
-45 -46 0
44 45 46 0
c gate 47 2 -18 0
2 -47 0
-18 -47 0
-2 18 47 0
c gate 48 3 -19 0
3 -48 0
-19 -48 0
-3 19 48 0
c gate 49 -47 -48 0
-47 -49 0
-48 -49 0
47 48 49 0
c gate 50 -46 49 0
-46 -50 0
49 -50 0
46 -49 50 0
c gate 51 -3 19 0
-3 -51 0
19 -51 0
3 -19 51 0
c gate 52 -4 20 0
-4 -52 0
20 -52 0
4 -20 52 0
c gate 53 -51 -52 0
-51 -53 0
-52 -53 0
51 52 53 0
c gate 54 -50 53 0
-50 -54 0
53 -54 0
50 -53 54 0
c gate 55 5 -21 0
5 -55 0
-21 -55 0
-5 21 55 0
c gate 56 4 -20 0
4 -56 0
-20 -56 0
-4 20 56 0
c gate 57 -55 -56 0
-55 -57 0
-56 -57 0
55 56 57 0
c gate 58 -54 57 0
-54 -58 0
57 -58 0
54 -57 58 0
c gate 59 -6 22 0
-6 -59 0
22 -59 0
6 -22 59 0
c gate 60 -5 21 0
-5 -60 0
21 -60 0
5 -21 60 0
c gate 61 -59 -60 0
-59 -61 0
-60 -61 0
59 60 61 0
c gate 62 -58 61 0
-58 -62 0
61 -62 0
58 -61 62 0
c gate 63 -43 -62 0
-43 -63 0
-62 -63 0
43 62 63 0
c gate 64 -42 -63 0
-42 -64 0
-63 -64 0
42 63 64 0
c gate 65 -41 -64 0
-41 -65 0
-64 -65 0
41 64 65 0
c gate 66 -40 -65 0
-40 -66 0
-65 -66 0
40 65 66 0
c gate 67 8 -24 0
8 -67 0
-24 -67 0
-8 24 67 0
c gate 68 9 -25 0
9 -68 0
-25 -68 0
-9 25 68 0
c gate 69 -67 -68 0
-67 -69 0
-68 -69 0
67 68 69 0
c gate 70 -66 69 0
-66 -70 0
69 -70 0
66 -69 70 0
c gate 71 -39 -70 0
-39 -71 0
-70 -71 0
39 70 71 0
c gate 72 -38 -71 0
-38 -72 0
-71 -72 0
38 71 72 0
c gate 73 -10 26 0
-10 -73 0
26 -73 0
10 -26 73 0
c gate 74 -11 27 0
-11 -74 0
27 -74 0
11 -27 74 0
c gate 75 -73 -74 0
-73 -75 0
-74 -75 0
73 74 75 0
c gate 76 -72 75 0
-72 -76 0
75 -76 0
72 -75 76 0
c gate 77 11 -27 0
11 -77 0
-27 -77 0
-11 27 77 0
c gate 78 12 -28 0
12 -78 0
-28 -78 0
-12 28 78 0
c gate 79 -77 -78 0
-77 -79 0
-78 -79 0
77 78 79 0
c gate 80 -76 79 0
-76 -80 0
79 -80 0
76 -79 80 0
c gate 81 -37 -80 0
-37 -81 0
-80 -81 0
37 80 81 0
c gate 82 -36 -81 0
-36 -82 0
-81 -82 0
36 81 82 0
c gate 83 -13 29 0
-13 -83 0
29 -83 0
13 -29 83 0
c gate 84 -14 30 0
-14 -84 0
30 -84 0
14 -30 84 0
c gate 85 -83 -84 0
-83 -85 0
-84 -85 0
83 84 85 0
c gate 86 -82 85 0
-82 -86 0
85 -86 0
82 -85 86 0
c gate 87 15 -31 0
15 -87 0
-31 -87 0
-15 31 87 0
c gate 88 14 -30 0
14 -88 0
-30 -88 0
-14 30 88 0
c gate 89 87 -88 0
87 -89 0
-88 -89 0
-87 88 89 0
c gate 90 -86 89 0
-86 -90 0
89 -90 0
86 -89 90 0
c gate 91 -35 90 0
-35 -91 0
90 -91 0
35 -90 91 0
c gate 92 -9 -25 0
-9 -92 0
-25 -92 0
9 25 92 0
c gate 93 -40 -67 0
-40 -93 0
-67 -93 0
40 67 93 0
c gate 94 -7 -23 0
-7 -94 0
-23 -94 0
7 23 94 0
c gate 95 7 23 0
7 -95 0
23 -95 0
-7 -23 95 0
c gate 96 -6 -22 0
-6 -96 0
-22 -96 0
6 22 96 0
c gate 97 6 22 0
6 -97 0
22 -97 0
-6 -22 97 0
c gate 98 5 21 0
5 -98 0
21 -98 0
-5 -21 98 0
c gate 99 -4 -20 0
-4 -99 0
-20 -99 0
4 20 99 0
c gate 100 4 20 0
4 -100 0
20 -100 0
-4 -20 100 0
c gate 101 3 19 0
3 -101 0
19 -101 0
-3 -19 101 0
c gate 102 -100 -101 0
-100 -102 0
-101 -102 0
100 101 102 0
c gate 103 -2 -18 0
-2 -103 0
-18 -103 0
2 18 103 0
c gate 104 1 17 0
1 -104 0
17 -104 0
-1 -17 104 0
c gate 105 2 18 0
2 -105 0
18 -105 0
-2 -18 105 0
c gate 106 -104 -105 0
-104 -106 0
-105 -106 0
104 105 106 0
c gate 107 -48 -51 0
-48 -107 0
-51 -107 0
48 51 107 0
c gate 108 -106 -107 0
-106 -108 0
-107 -108 0
106 107 108 0
c gate 109 -103 108 0
-103 -109 0
108 -109 0
103 -108 109 0
c gate 110 102 -109 0
102 -110 0
-109 -110 0
-102 109 110 0
c gate 111 -99 -110 0
-99 -111 0
-110 -111 0
99 110 111 0
c gate 112 -98 -111 0
-98 -112 0
-111 -112 0
98 111 112 0
c gate 113 -5 -21 0
-5 -113 0
-21 -113 0
5 21 113 0
c gate 114 -112 -113 0
-112 -114 0
-113 -114 0
112 113 114 0
c gate 115 -97 -114 0
-97 -115 0
-114 -115 0
97 114 115 0
c gate 116 -96 -115 0
-96 -116 0
-115 -116 0
96 115 116 0
c gate 117 -95 -116 0
-95 -117 0
-116 -117 0
95 116 117 0
c gate 118 -94 -117 0
-94 -118 0
-117 -118 0
94 117 118 0
c gate 119 -93 118 0
-93 -119 0
118 -119 0
93 -118 119 0
c gate 120 8 24 0
8 -120 0
24 -120 0
-8 -24 120 0
c gate 121 -119 -120 0
-119 -121 0
-120 -121 0
119 120 121 0
c gate 122 -92 -121 0
-92 -122 0
-121 -122 0
92 121 122 0
c gate 123 102 -108 0
102 -123 0
-108 -123 0
-102 108 123 0
c gate 124 -96 -99 0
-96 -124 0
-99 -124 0
96 99 124 0
c gate 125 -97 -113 0
-97 -125 0
-113 -125 0
97 113 125 0
c gate 126 124 125 0
124 -126 0
125 -126 0
-124 -125 126 0
c gate 127 -123 126 0
-123 -127 0
126 -127 0
123 -126 127 0
c gate 128 -116 -127 0
-116 -128 0
-127 -128 0
116 127 128 0
c gate 129 -94 -128 0
-94 -129 0
-128 -129 0
94 128 129 0
c gate 130 -95 -129 0
-95 -130 0
-129 -130 0
95 129 130 0
c gate 131 -93 -130 0
-93 -131 0
-130 -131 0
93 130 131 0
c gate 132 -120 -131 0
-120 -132 0
-131 -132 0
120 131 132 0
c gate 133 -39 -68 0
-39 -133 0
-68 -133 0
39 68 133 0
c gate 134 -38 -73 0
-38 -134 0
-73 -134 0
38 73 134 0
c gate 135 -133 -134 0
-133 -135 0
-134 -135 0
133 134 135 0
c gate 136 -74 -77 0
-74 -136 0
-77 -136 0
74 77 136 0
c gate 137 -37 -78 0
-37 -137 0
-78 -137 0
37 78 137 0
c gate 138 -136 -137 0
-136 -138 0
-137 -138 0
136 137 138 0
c gate 139 135 138 0
135 -139 0
138 -139 0
-135 -138 139 0
c gate 140 -84 -88 0
-84 -140 0
-88 -140 0
84 88 140 0
c gate 141 -35 -140 0
-35 -141 0
-140 -141 0
35 140 141 0
c gate 142 -36 -83 0
-36 -142 0
-83 -142 0
36 83 142 0
c gate 143 -15 31 0
-15 -143 0
31 -143 0
15 -31 143 0
c gate 144 -87 -143 0
-87 -144 0
-143 -144 0
87 143 144 0
c gate 145 -142 -144 0
-142 -145 0
-144 -145 0
142 144 145 0
c gate 146 141 145 0
141 -146 0
145 -146 0
-141 -145 146 0
c gate 147 139 146 0
139 -147 0
146 -147 0
-139 -146 147 0
c gate 148 -132 147 0
-132 -148 0
147 -148 0
132 -147 148 0
c gate 149 -122 148 0
-122 -149 0
148 -149 0
122 -148 149 0
c gate 150 93 130 0
93 -150 0
130 -150 0
-93 -130 150 0
c gate 151 -131 -150 0
-131 -151 0
-150 -151 0
131 150 151 0
c gate 152 93 -118 0
93 -152 0
-118 -152 0
-93 118 152 0
c gate 153 -119 -152 0
-119 -153 0
-152 -153 0
119 152 153 0
c gate 154 -151 153 0
-151 -154 0
153 -154 0
151 -153 154 0
c gate 155 -149 154 0
-149 -155 0
154 -155 0
149 -154 155 0
c gate 156 151 -153 0
151 -156 0
-153 -156 0
-151 153 156 0
c gate 157 104 105 0
104 -157 0
105 -157 0
-104 -105 157 0
c gate 158 112 127 0
112 -158 0
127 -158 0
-112 -127 158 0
c gate 159 -157 -158 0
-157 -159 0
-158 -159 0
157 158 159 0
c gate 160 -41 -42 0
-41 -160 0
-42 -160 0
41 42 160 0
c gate 161 158 160 0
158 -161 0
160 -161 0
-158 -160 161 0
c gate 162 -159 -161 0
-159 -162 0
-161 -162 0
159 161 162 0
c gate 163 -156 162 0
-156 -163 0
162 -163 0
156 -162 163 0
c gate 164 -155 163 0
-155 -164 0
163 -164 0
155 -163 164 0
c gate 165 -91 -164 0
-91 -165 0
-164 -165 0
91 164 165 0
c gate 166 35 90 0
35 -166 0
90 -166 0
-35 -90 166 0
c gate 167 103 104 0
103 -167 0
104 -167 0
-103 -104 167 0
c gate 168 -149 167 0
-149 -168 0
167 -168 0
149 -167 168 0
c gate 169 -166 -168 0
-166 -169 0
-168 -169 0
166 168 169 0
c gate 170 -165 -169 0
-165 -170 0
-169 -170 0
165 169 170 0
c PO
170 0
